; TODO try replacing this with int
(declare-datatype nat ((zero) (s (s_0 nat))))
(declare-datatype tree (par (a) ((Leaf) (Node (Node_0 (tree a)) (Node_1 a) (Node_2 (tree a))))))
(declare-fun plus (nat nat) nat)
(assert (forall ((x nat)) (= (plus zero x) x)))
(assert (forall ((x nat) (y nat)) (= (plus (s x) y) (s (plus x y)))))
(declare-fun mult (nat nat) nat)
(assert (forall ((x nat)) (= (mult zero x) zero)))
(assert (forall ((x nat) (y nat)) (= (mult (s x) y) (plus (mult x y) y))))
(declare-fun less (par (a) (a a) Bool))
(assert (forall ((x nat)) (not (less nat x zero))))
(assert (forall ((x nat)) (less nat zero (s x))))
(assert (forall ((x nat) (y nat)) (= (less nat (s x) (s y)) (less nat x y))))
(declare-fun leq (par (a) (a a) Bool))
(assert (par (a) (forall ((x a) (y a)) (= (leq a x y) (or (= x y) (less a x y))))))
(declare-fun pow (nat nat) nat)
(assert (forall ((x nat)) (= (pow x zero) (s zero))))
(assert (forall ((x nat) (e nat)) (= (pow x (s e)) (mult x (pow x e)))))
(declare-fun max (par (a) (a a) a))
(assert (par (a) (forall ((x a) (y a)) (= (max a x y) (ite (leq a x y) y x)))))
(declare-fun size (par (a) ((tree a)) nat))
(assert (par (a) (= (size a (Leaf a)) zero)))
(assert (par (a) (forall ((l (tree a)) (x a) (r (tree a))) (= (size a (Node a l x r)) (s (plus (size a l) (size a r)))))))
(declare-fun h (par (a) ((tree a)) nat))
(assert (par (a) (= (h a (Leaf a)) zero)))
(assert (par (a) (forall ((l (tree a)) (x a) (r (tree a))) (= (h a (Node a l x r)) (s (max nat (h a l) (h a r)))))))
(declare-fun braun (par (a) ((tree a)) Bool))
(assert (par (a) (braun a (Leaf a))))
(assert (par (a) (forall ((l (tree a)) (x a) (r (tree a))) (= (braun a (Node a l x r))
  (and (or (= (size a l) (size a r)) (= (size a l) (s (size a r)))) (braun a l) (braun a r))))))

; braun(t) -> 2^h(t) <= 2 * |t| + 1
(assert-not (par (a) (forall ((t (tree a))) (=> (braun a t) (leq nat (pow (s (s zero)) (h a t)) (s (mult (s (s zero)) (size a t))))))))
